(declare-const delta_j Int)
(declare-const delta_cont Int)
(assert (exists
         ((|cont'?1| Int) (tr?2 Int) (tr?3 Int) (phi_cont?4 Int) (tr?5 Int)
            (tr?6 Int) (|j'?7| Int) (cont?8 Int) (j?9 Int))
         (and (<= (- cont?8) 0) (<= (- j?9) 0) (<= (+ j?9 -1) 0)
                (or (and (or (<= (+ (- tr?5) tr?6 1) 0)
                               (<= (+ tr?5 (- tr?6) 1) 0))
                           (= (+ (- phi_cont?4) cont?8) 0))
                      (and (= (+ (- tr?2) tr?3) 0)
                             (= (+ (- phi_cont?4) cont?8 1) 0)))
                (= (+ |cont'?1| (- phi_cont?4)) 0)
                (= (+ |j'?7| (- j?9) -1) 0) (= delta_j (+ |j'?7| (- j?9)))
                (= delta_cont (+ |cont'?1| (- cont?8))))))
(check-sat)
